780 1520
2 1 4
95 1 -4
392 1 -4
393 1 4
110 2 -4
345 2 4
412 2 -4
105 3 -4
357 3 -4
431 3 4
484 3 4
46 4 4
378 4 -4
593 4 4
631 4 -4
6 5 -4
353 5 4
569 5 -4
606 5 4
47 6 -4
444 6 4
685 6 4
406 7 4
454 7 4
455 7 -4
509 7 -4
17 8 4
305 8 -4
673 8 -4
722 8 4
10 9 -4
369 9 4
536 9 -4
643 9 4
56 10 -4
421 10 4
733 10 4
77 11 -4
370 11 4
479 11 4
505 11 -4
46 12 -4
306 12 -4
557 12 4
777 12 4
89 13 -4
354 13 4
447 13 4
538 13 -4
15 14 4
157 14 -4
511 14 -4
755 14 4
107 15 4
310 15 -4
315 15 -4
307 16 -4
378 16 -4
595 16 4
724 16 4
307 17 -4
528 17 4
598 17 -4
129 18 -4
420 18 -4
443 18 4
683 18 4
101 19 -4
343 19 4
425 19 4
572 19 -4
104 20 4
355 20 4
577 20 -4
612 20 -4
22 21 4
23 21 -4
135 21 4
658 21 -4
309 22 -4
313 22 -4
584 22 4
134 23 4
313 23 -4
546 23 4
232 24 4
720 24 -4
772 24 4
775 24 -4
26 25 4
306 25 -4
497 25 4
635 25 -4
775 26 4
776 26 -4
779 26 -4
369 27 -4
401 27 -4
473 27 4
639 27 4
91 28 4
356 28 -4
371 28 4
451 28 -4
30 29 4
31 29 -4
122 29 4
619 29 -4
52 30 -4
311 30 -4
618 30 4
145 31 4
315 31 -4
583 31 4
33 32 4
74 32 -4
517 32 4
621 32 -4
80 33 -4
122 33 -4
123 33 4
174 34 4
220 34 4
722 34 -4
773 34 -4
36 35 4
307 35 -4
470 35 4
675 35 -4
722 36 4
723 36 -4
726 36 -4
353 37 -4
383 37 -4
500 37 4
602 37 4
371 38 -4
384 38 4
691 38 4
739 38 -4
372 39 -4
384 39 4
428 39 -4
540 39 4
41 40 4
409 40 -4
655 40 4
749 40 -4
338 41 -4
386 41 -4
544 41 4
43 42 -4
108 42 4
585 42 -4
655 42 4
156 43 4
317 43 -4
617 43 4
45 44 4
82 44 -4
549 44 4
586 44 -4
93 45 -4
108 45 -4
708 45 4
209 46 4
463 46 -4
368 47 -4
532 47 4
566 47 4
49 48 4
152 48 -4
236 48 4
308 48 -4
503 49 -4
534 49 4
568 49 -4
236 50 -4
302 50 4
343 50 4
646 50 -4
385 51 -4
403 51 4
429 51 -4
578 51 4
53 52 4
63 52 4
432 52 -4
276 53 4
333 53 -4
374 53 -4
434 54 -4
547 54 -4
588 54 4
757 54 4
148 55 4
519 55 -4
549 55 -4
588 55 4
352 56 -4
533 56 4
565 56 4
58 57 4
225 57 4
312 57 -4
689 57 -4
476 58 -4
501 58 4
535 58 -4
225 59 -4
299 59 4
354 59 4
609 59 -4
404 60 -4
426 60 4
452 60 -4
611 60 4
206 61 4
357 61 -4
611 61 4
612 61 -4
281 62 4
309 62 4
328 62 -4
358 62 -4
309 63 -4
704 63 4
754 63 -4
65 64 4
411 64 -4
515 64 -4
624 64 4
80 65 4
316 65 -4
410 65 -4
137 66 4
517 66 -4
551 66 -4
624 66 4
68 67 4
214 67 4
314 67 -4
737 67 -4
445 68 -4
475 68 4
502 68 -4
427 69 -4
449 69 4
482 69 -4
649 69 4
194 70 4
541 70 -4
578 70 -4
649 70 4
289 71 4
310 71 4
324 71 -4
344 71 -4
359 72 4
546 72 4
621 72 -4
657 72 -4
74 73 -4
124 73 4
589 73 -4
662 73 4
207 74 4
488 74 4
244 75 -4
269 75 -4
308 75 4
566 75 4
153 76 4
423 76 -4
641 76 4
686 76 -4
385 77 -4
539 77 4
742 77 4
187 78 4
540 78 -4
579 78 -4
696 78 4
295 79 4
311 79 4
322 79 -4
338 79 -4
121 80 4
618 80 -4
82 81 -4
112 81 4
626 81 -4
709 81 4
218 82 4
459 82 4
84 83 4
464 83 -4
671 83 4
723 83 -4
266 84 4
438 84 -4
592 84 -4
86 85 -4
87 85 4
679 85 4
682 85 -4
222 86 -4
233 86 4
234 86 4
234 87 -4
602 87 4
640 87 -4
162 88 4
445 88 -4
685 88 4
734 88 -4
404 89 -4
506 89 4
693 89 4
91 90 -4
430 90 4
613 90 -4
745 90 4
217 91 -4
508 91 4
119 92 -4
313 92 4
333 92 -4
751 92 4
107 93 4
584 93 -4
757 93 4
434 94 -4
664 94 4
665 94 -4
761 94 4
138 95 4
553 95 -4
664 95 4
97 96 4
492 96 -4
633 96 4
776 96 -4
259 97 4
415 97 -4
555 97 -4
99 98 -4
100 98 4
728 98 4
731 98 -4
210 99 -4
242 99 4
243 99 4
243 100 -4
603 100 -4
639 100 4
427 101 -4
480 101 4
647 101 4
103 102 4
104 102 -4
405 102 4
651 102 -4
481 103 4
507 103 -4
648 103 -4
205 104 -4
238 104 4
106 105 4
654 105 4
749 105 -4
257 106 4
405 106 -4
698 106 -4
277 107 -4
545 107 -4
165 108 4
515 108 -4
110 109 4
411 109 -4
711 109 4
712 109 -4
136 110 4
708 110 -4
112 111 -4
125 111 4
394 111 -4
711 111 4
239 112 -4
766 112 4
251 113 4
396 113 -4
522 113 -4
595 113 4
201 114 4
352 114 -4
565 114 4
678 114 -4
201 115 -4
252 115 4
253 115 4
565 115 -4
213 116 -4
253 116 -4
565 116 4
683 116 4
118 117 4
163 117 4
451 117 -4
698 117 -4
483 118 -4
610 118 -4
743 118 4
120 119 4
652 119 -4
700 119 4
163 120 -4
247 120 4
651 120 -4
511 121 4
512 121 -4
514 121 -4
487 122 -4
703 122 4
278 123 -4
390 123 4
660 123 -4
319 124 -4
435 124 -4
713 124 4
319 125 -4
347 125 4
362 125 -4
241 126 4
377 126 -4
491 126 -4
557 126 4
190 127 4
368 127 -4
532 127 4
636 127 -4
190 128 -4
260 128 4
261 128 4
532 128 -4
130 129 4
567 129 4
734 129 -4
224 130 -4
261 130 -4
532 130 4
143 131 4
610 131 -4
692 131 4
741 131 -4
133 132 4
154 132 4
428 132 -4
747 132 -4
143 133 -4
453 133 -4
694 133 4
749 134 4
750 134 -4
752 134 -4
458 135 -4
621 135 -4
753 135 4
282 136 -4
621 136 4
622 136 -4
320 137 -4
459 137 -4
666 137 4
320 138 -4
340 138 4
376 138 -4
231 139 4
363 139 -4
462 139 -4
524 139 4
183 140 4
383 140 -4
500 140 4
599 140 -4
183 141 -4
267 141 4
268 141 4
500 141 -4
235 142 -4
268 142 -4
369 142 4
500 142 4
292 143 4
577 143 -4
324 144 4
357 144 4
431 144 -4
579 144 -4
700 145 4
701 145 -4
702 145 -4
229 146 -4
291 146 -4
586 146 4
761 146 4
323 147 4
375 147 -4
488 147 4
763 147 -4
283 148 4
323 148 -4
488 148 -4
219 149 4
348 149 -4
438 149 -4
493 149 4
176 150 4
401 150 -4
473 150 4
563 150 -4
244 151 -4
353 151 4
473 151 4
474 151 -4
153 152 4
448 152 -4
608 152 4
299 153 -4
735 153 -4
155 154 4
373 154 -4
483 154 -4
328 155 4
406 155 -4
541 155 -4
290 156 -4
654 156 4
656 156 -4
195 157 4
547 157 -4
706 157 4
325 158 4
361 158 -4
518 158 4
710 158 -4
167 159 -4
415 159 -4
465 159 4
721 159 4
175 160 4
326 160 -4
417 160 4
440 160 -4
169 161 4
420 161 -4
443 161 4
530 161 -4
302 162 -4
402 162 4
687 162 -4
164 163 4
507 163 -4
206 164 -4
333 164 4
386 164 -4
409 165 -4
659 165 4
752 165 -4
329 166 4
346 166 -4
550 166 4
663 166 -4
168 167 4
330 167 -4
772 167 4
363 168 -4
436 168 4
489 168 -4
499 169 -4
227 170 -4
285 170 4
449 170 4
539 170 -4
280 171 -4
287 171 -4
405 171 4
745 171 4
194 172 -4
338 172 4
374 172 -4
405 172 4
182 173 4
334 173 4
339 173 -4
625 173 -4
348 174 4
377 174 -4
378 174 -4
336 175 -4
472 176 -4
536 177 -4
606 177 4
640 177 4
732 177 -4
215 178 -4
279 178 4
426 178 4
506 178 -4
426 179 4
427 179 -4
429 179 -4
696 179 4
286 180 -4
293 180 -4
430 180 4
696 180 4
187 181 -4
344 181 4
358 181 -4
430 181 4
291 182 -4
588 182 4
589 182 -4
478 184 4
569 184 4
570 184 -4
572 184 -4
203 185 -4
275 185 4
403 185 4
480 185 -4
403 186 4
404 186 -4
428 186 -4
649 186 4
188 187 4
614 187 -4
292 188 -4
300 188 -4
649 188 4
486 189 4
585 189 -4
616 189 -4
755 189 4
192 191 4
445 191 4
448 191 -4
506 191 -4
255 192 -4
536 192 4
538 192 -4
384 193 4
385 193 -4
451 193 -4
611 193 4
580 194 -4
650 194 4
512 195 4
582 195 -4
619 195 -4
258 196 4
412 196 -4
517 196 4
706 196 -4
198 197 4
199 197 -4
200 197 4
349 197 -4
231 198 4
397 198 -4
774 198 -4
241 199 4
378 199 4
416 199 -4
364 200 -4
366 200 4
381 200 -4
203 202 -4
423 202 4
504 202 4
539 202 -4
204 203 4
478 203 4
371 204 4
427 204 -4
690 204 -4
371 205 4
372 205 -4
578 205 4
542 206 -4
697 206 4
391 207 -4
516 207 4
660 207 -4
219 208 4
364 208 4
379 208 -4
721 208 -4
251 209 4
364 209 -4
439 209 -4
728 210 4
212 211 4
213 211 4
422 211 -4
474 211 -4
728 212 4
729 212 -4
731 212 -4
568 213 -4
685 213 4
215 214 -4
477 214 4
574 214 -4
216 215 4
446 215 4
355 216 4
404 216 -4
645 216 -4
355 217 4
356 217 -4
540 217 4
411 218 -4
548 218 4
622 218 -4
670 219 -4
671 219 -4
259 220 4
379 220 -4
468 220 -4
679 221 4
680 221 -4
679 222 4
601 223 4
679 223 4
680 223 -4
682 223 -4
535 224 -4
601 224 4
641 224 4
226 225 4
227 225 -4
269 226 4
447 226 -4
644 226 -4
228 227 4
424 227 4
356 228 4
385 228 -4
608 228 -4
272 229 -4
360 229 4
585 229 4
667 230 4
764 230 4
765 230 -4
768 230 -4
632 231 -4
633 231 -4
266 232 4
397 232 -4
495 232 -4
637 233 -4
637 234 -4
638 234 4
502 235 -4
604 235 4
638 235 4
237 236 4
573 236 -4
262 237 4
425 237 -4
607 237 -4
482 238 -4
484 238 -4
613 238 4
411 239 4
412 239 -4
711 239 4
711 240 4
712 240 -4
714 240 4
715 240 -4
594 241 -4
596 241 -4
600 242 -4
600 243 -4
681 243 4
567 244 4
681 244 4
255 245 4
570 245 -4
689 245 4
737 245 -4
451 246 4
452 246 -4
454 246 -4
651 246 4
388 247 4
748 247 -4
750 247 -4
249 248 4
387 248 4
388 248 -4
457 248 -4
510 249 -4
617 249 -4
703 249 4
664 250 4
665 250 -4
668 250 -4
767 250 4
556 251 -4
558 251 -4
564 252 -4
564 253 -4
730 253 4
444 254 -4
475 254 -4
534 254 4
730 254 4
534 255 4
535 255 -4
428 256 4
429 256 -4
698 256 4
747 256 -4
408 257 4
699 257 -4
701 257 -4
277 258 4
659 258 -4
661 258 -4
523 259 -4
525 259 -4
531 260 -4
421 261 4
531 261 -4
501 262 4
502 262 -4
504 262 -4
290 263 -4
433 263 4
652 263 4
653 263 -4
272 264 4
620 264 -4
707 264 -4
759 264 4
435 265 4
759 265 4
760 265 -4
763 265 -4
492 266 -4
494 266 -4
499 267 -4
444 268 4
499 268 -4
475 269 4
477 269 -4
450 270 4
740 270 4
741 270 -4
744 270 -4
296 271 -4
456 271 4
614 271 4
615 271 -4
583 272 4
584 272 -4
459 273 4
707 273 4
708 273 -4
710 273 -4
472 274 4
729 274 -4
481 275 4
692 275 -4
695 275 -4
486 276 -4
582 276 -4
750 276 4
546 277 4
548 277 -4
488 278 4
661 278 4
663 278 -4
646 279 -4
648 279 -4
743 279 4
508 280 4
743 280 4
744 280 -4
512 281 -4
616 281 -4
701 281 4
518 282 4
623 282 4
625 282 -4
284 283 4
519 283 -4
628 283 -4
521 284 4
591 284 -4
713 284 -4
609 285 -4
610 285 -4
694 285 4
694 286 4
695 286 -4
746 286 4
543 287 4
746 287 4
748 287 -4
290 288 4
542 288 4
543 288 -4
701 288 -4
290 289 4
545 289 -4
656 289 -4
550 291 4
587 291 4
648 292 -4
697 292 4
581 293 4
697 293 4
699 293 -4
296 294 4
580 294 4
581 294 -4
750 294 -4
296 295 4
582 295 -4
702 295 -4
751 296 -4
298 297 4
598 297 -4
304 298 -4
778 298 4
779 298 -4
736 299 4
739 299 -4
615 300 4
650 300 4
653 300 -4
635 301 -4
780 301 4
688 302 4
691 302 -4
670 303 4
769 303 4
770 303 -4
773 303 -4
780 304 4
307 305 -4
465 305 4
466 305 -4
673 306 -4
775 306 4
327 308 -4
423 308 -4
407 309 -4
387 310 -4
655 310 -4
388 311 -4
511 311 -4
537 312 -4
567 312 4
605 312 -4
408 313 -4
571 314 -4
604 314 4
642 314 -4
433 315 -4
654 315 4
583 316 4
586 316 -4
704 316 -4
456 317 -4
511 317 -4
700 317 4
547 318 -4
617 318 4
754 318 -4
757 318 -4
413 319 -4
764 319 4
345 320 4
436 320 -4
331 321 -4
676 321 -4
373 322 4
614 322 -4
749 322 -4
394 323 -4
460 323 -4
580 324 -4
700 324 -4
413 325 -4
489 325 -4
519 325 -4
341 326 -4
422 327 -4
569 327 -4
684 327 4
542 328 -4
654 328 -4
436 329 -4
520 329 -4
551 329 -4
377 330 -4
413 330 4
520 330 -4
332 331 -4
398 331 4
469 331 -4
350 332 -4
543 333 -4
460 334 -4
552 334 -4
589 334 -4
348 335 -4
394 335 4
396 335 -4
552 335 -4
337 336 -4
380 336 4
496 336 -4
366 337 -4
581 338 -4
489 339 -4
590 339 -4
626 339 -4
363 340 -4
415 340 -4
590 340 -4
342 341 -4
365 341 4
527 341 -4
381 342 -4
355 343 -4
403 343 4
432 344 -4
615 344 -4
393 345 -4
459 345 4
520 346 -4
627 346 -4
665 346 -4
377 347 -4
438 347 -4
627 347 -4
716 348 -4
350 349 4
379 349 -4
399 349 -4
351 350 -4
560 350 -4
399 351 -4
601 352 4
680 352 -4
641 353 4
356 354 -4
426 354 4
453 357 -4
407 358 -4
653 358 -4
360 359 -4
389 359 -4
514 359 -4
390 360 -4
434 360 -4
552 361 -4
667 361 -4
712 361 -4
396 362 -4
462 362 -4
667 362 -4
463 363 -4
365 364 -4
397 365 -4
418 365 -4
367 366 -4
778 366 -4
418 367 -4
637 368 -4
638 368 4
604 369 4
372 370 -4
449 370 4
574 370 4
575 372 -4
455 373 -4
613 373 -4
387 374 -4
699 374 -4
590 375 -4
714 375 -4
765 375 -4
415 376 -4
491 376 -4
714 376 -4
380 379 -4
416 380 -4
441 380 -4
382 381 -4
725 381 -4
441 382 -4
600 383 -4
681 383 4
740 384 4
388 386 -4
748 386 -4
455 387 -4
391 389 -4
487 389 -4
662 389 4
392 390 -4
762 390 -4
392 391 -4
762 391 -4
664 392 -4
627 393 -4
767 393 -4
395 394 -4
438 395 -4
522 395 -4
767 395 -4
772 396 -4
398 397 -4
439 398 -4
470 398 -4
400 399 -4
674 399 -4
470 400 -4
564 401 -4
730 401 4
571 402 4
573 402 4
645 402 -4
408 406 -4
432 406 -4
431 407 -4
485 407 4
485 408 -4
485 409 -4
513 409 -4
412 410 -4
458 410 -4
709 410 4
414 413 -4
462 414 -4
555 414 -4
768 414 4
417 416 -4
467 416 -4
468 417 -4
497 417 -4
419 418 -4
726 418 -4
497 419 -4
421 420 4
531 420 -4
422 421 -4
501 422 -4
425 423 -4
537 424 4
688 424 4
690 424 -4
690 425 -4
453 429 -4
652 430 -4
433 431 -4
510 432 4
510 433 -4
435 434 4
764 435 4
437 436 -4
491 437 -4
592 437 -4
715 437 4
440 439 -4
494 439 -4
495 440 -4
528 440 -4
442 441 -4
779 441 -4
528 442 -4
444 443 4
499 443 -4
447 445 -4
503 446 4
736 446 4
738 446 -4
738 447 -4
575 448 -4
740 448 4
450 449 4
452 450 -4
745 450 4
483 452 -4
454 453 -4
614 454 -4
456 455 -4
544 456 -4
544 457 -4
583 457 -4
753 457 4
585 458 -4
707 458 4
461 460 -4
716 460 -4
522 461 -4
630 461 -4
668 461 4
464 462 -4
466 463 -4
719 463 -4
466 464 -4
630 464 -4
467 465 4
670 465 -4
467 466 -4
526 467 -4
469 468 -4
525 468 -4
526 469 -4
561 469 -4
471 470 -4
561 471 -4
473 472 -4
474 472 -4
729 474 -4
602 475 4
478 476 4
479 476 -4
643 476 -4
479 477 -4
687 477 -4
480 478 -4
480 479 -4
482 481 -4
742 481 4
507 482 -4
484 483 -4
580 484 -4
486 485 -4
546 486 -4
619 487 -4
661 487 4
490 489 -4
555 490 -4
628 490 4
669 490 -4
492 491 -4
669 492 -4
494 493 4
632 493 -4
775 493 4
559 494 -4
496 495 -4
558 495 -4
559 496 -4
598 496 -4
498 497 -4
598 498 -4
639 501 4
533 502 4
505 503 -4
606 503 -4
505 504 -4
735 504 -4
506 505 -4
509 507 -4
509 508 -4
579 508 4
542 509 -4
512 510 -4
514 513 -4
545 513 4
658 513 -4
516 514 -4
623 515 4
658 515 -4
623 516 -4
705 516 -4
518 517 4
519 518 -4
521 520 -4
592 521 -4
718 521 -4
523 522 -4
595 523 -4
718 523 -4
525 524 4
594 524 -4
722 524 4
597 525 -4
527 526 -4
596 526 -4
597 527 -4
635 527 -4
529 528 -4
635 529 -4
531 530 -4
535 533 -4
731 533 4
683 534 4
571 536 -4
538 537 -4
569 537 -4
539 538 -4
746 540 4
543 541 -4
746 541 4
545 544 -4
587 547 4
587 548 -4
756 548 -4
550 549 4
759 549 4
551 550 -4
666 551 -4
554 552 -4
554 553 -4
666 553 -4
716 553 -4
630 554 -4
771 554 -4
556 555 -4
557 556 -4
771 556 -4
558 557 4
634 558 -4
560 559 -4
633 559 -4
634 560 -4
675 560 -4
562 561 -4
673 561 4
675 562 -4
564 563 -4
568 566 -4
682 566 4
570 567 4
570 568 -4
572 571 -4
574 572 -4
575 573 -4
576 573 -4
576 574 -4
577 575 -4
577 576 -4
742 576 4
697 578 4
581 579 -4
584 582 -4
755 586 -4
709 587 4
707 588 4
713 589 -4
591 590 -4
593 591 -4
669 591 -4
594 592 -4
594 593 -4
717 593 -4
596 595 4
672 596 -4
671 597 -4
778 597 -4
600 599 -4
603 601 -4
605 602 -4
605 603 -4
733 603 4
607 604 4
607 605 -4
736 606 4
736 607 -4
609 608 -4
689 608 -4
693 609 4
612 610 -4
650 611 4
650 612 -4
615 613 -4
618 616 -4
751 616 -4
620 617 4
620 618 -4
622 619 4
622 620 -4
662 623 4
625 624 4
661 624 4
626 625 -4
766 626 -4
629 627 -4
629 628 -4
766 628 -4
631 629 -4
718 629 -4
632 630 -4
632 631 -4
770 631 -4
724 633 -4
723 634 -4
725 634 -4
637 636 -4
640 638 -4
642 639 -4
642 640 -4
644 641 4
644 642 -4
688 643 4
733 643 4
688 644 -4
646 645 -4
737 645 -4
647 646 4
648 647 -4
694 647 4
653 651 -4
747 652 -4
657 655 4
657 656 -4
753 656 -4
659 657 -4
660 658 4
660 659 -4
663 662 4
665 663 -4
668 666 -4
769 667 -4
769 668 -4
670 669 -4
777 671 -4
674 672 -4
776 672 -4
778 672 -4
676 673 -4
676 674 -4
777 674 -4
677 675 -4
677 676 -4
680 678 -4
684 681 -4
684 682 -4
686 683 -4
686 684 -4
687 685 4
687 686 -4
691 689 -4
692 690 -4
692 691 -4
695 693 -4
743 693 4
745 695 -4
744 696 -4
699 698 -4
703 702 -4
704 702 -4
705 703 4
705 704 -4
706 705 -4
708 706 -4
710 709 4
712 710 -4
715 713 -4
717 714 -4
717 715 -4
719 716 -4
719 717 -4
720 718 -4
720 719 -4
721 720 -4
723 721 -4
725 724 -4
726 724 -4
780 725 4
780 726 -4
728 727 -4
729 727 -4
732 730 -4
732 731 -4
734 732 -4
735 733 4
735 734 -4
739 737 -4
740 738 -4
741 738 -4
741 739 -4
744 742 -4
748 747 -4
752 751 -4
754 752 -4
756 753 4
756 754 -4
758 755 4
758 756 -4
760 757 4
759 758 -4
760 758 -4
761 760 -4
763 761 4
764 762 4
765 762 -4
765 763 -4
768 766 -4
770 767 -4
770 768 -4
771 769 -4
773 771 -4
774 772 4
774 773 -4
776 774 -4
779 777 -4
476
305 2
306 2
307 4
308 2
309 2
310 2
311 2
312 2
313 2
314 2
315 2
316 2
317 2
318 2
319 2
320 2
321 2
322 2
323 2
324 2
325 2
326 2
327 2
328 2
329 2
330 2
331 2
332 2
333 2
334 2
335 2
336 2
337 2
338 2
339 4
340 2
341 2
342 2
343 -2
344 2
345 -2
346 4
347 2
348 2
349 2
350 2
351 2
352 2
353 -2
354 -2
355 -2
356 2
357 2
358 4
359 2
360 2
361 4
362 4
363 4
364 2
365 2
366 2
367 2
368 2
369 -2
370 -2
371 -2
372 4
373 2
374 4
375 4
376 4
377 4
378 2
379 4
380 2
381 4
382 2
383 2
384 -4
385 4
386 4
387 2
388 2
389 2
390 2
391 4
392 4
393 2
394 2
395 4
396 4
397 4
398 2
399 4
400 2
401 2
402 -2
403 -4
404 4
405 -2
406 2
407 2
408 2
409 4
410 2
411 2
412 4
413 2
414 2
415 4
416 4
417 2
418 4
419 2
420 2
421 -2
422 4
423 2
424 -2
425 2
426 -4
427 4
428 2
429 4
430 -2
431 2
432 2
433 2
434 2
435 -2
436 2
437 2
438 4
439 4
440 4
441 4
442 2
443 -2
444 -2
445 2
446 -2
447 2
448 2
449 -4
450 -2
451 2
452 4
453 4
454 2
455 4
456 2
457 2
458 2
459 -2
460 4
461 2
462 4
463 4
464 4
465 -2
466 4
467 2
468 4
469 4
470 2
471 2
472 2
473 -2
474 4
475 -2
476 2
477 2
478 -2
479 2
480 2
481 -2
482 4
483 4
484 2
485 2
486 2
487 2
488 -2
489 4
490 2
491 4
492 4
493 -2
494 2
495 4
496 4
497 2
498 2
499 4
500 -2
501 -2
502 2
503 2
504 2
505 4
506 2
507 4
508 -2
509 4
510 2
511 2
512 2
513 2
514 4
515 2
516 2
517 -2
518 -2
519 4
520 4
521 2
522 4
523 4
524 -2
525 2
526 4
527 4
528 2
529 2
530 2
531 4
532 -2
533 -2
534 -4
535 4
536 2
537 2
538 4
539 2
540 -2
541 2
542 2
543 2
544 2
545 2
546 -2
547 2
548 2
549 -2
550 -2
551 4
552 4
553 4
554 4
555 4
556 4
557 -2
558 2
559 4
560 4
561 2
562 2
563 2
564 4
565 -2
566 -2
567 -4
568 4
569 2
570 2
571 2
572 4
573 2
574 2
575 4
576 2
577 4
578 -2
579 2
580 2
581 2
582 4
583 -2
584 2
585 2
586 2
587 -2
588 -4
589 4
590 4
591 4
592 4
593 2
594 4
595 -2
596 2
597 4
598 4
599 2
600 4
601 -2
602 -2
603 2
604 -4
605 4
606 -2
607 2
608 2
609 2
610 4
611 -4
612 4
613 2
614 2
615 2
616 4
617 -2
618 2
619 2
620 2
621 2
622 2
623 -2
624 -4
625 2
626 4
627 4
628 2
629 4
630 4
631 4
632 4
633 2
634 4
635 4
636 2
637 4
638 -2
639 -2
640 2
641 -4
642 4
643 -2
644 2
645 4
646 2
647 -2
648 4
649 -4
650 -2
651 2
652 2
653 4
654 -2
655 -2
656 4
657 2
658 2
659 2
660 2
661 -2
662 -4
663 2
664 -2
665 4
666 2
667 2
668 2
669 4
670 2
671 2
672 4
673 2
674 4
675 4
676 4
677 2
678 2
679 -4
680 4
681 -2
682 2
683 -2
684 2
685 -4
686 4
687 2
688 -2
689 2
690 4
691 2
692 2
693 -2
694 -4
695 4
696 -2
697 -4
698 2
699 4
700 -2
701 2
702 4
703 -2
704 2
705 2
706 2
707 -2
708 2
709 -4
710 2
711 -4
712 4
713 2
714 2
715 2
716 4
717 4
718 4
719 4
720 4
721 2
722 -2
723 4
724 2
725 2
726 4
727 2
728 -2
729 4
730 -2
731 2
732 4
733 -4
734 4
735 2
736 -2
737 4
738 4
739 4
740 -2
741 4
742 -2
743 -4
744 4
745 -2
746 -4
747 4
748 4
749 2
750 2
751 2
752 4
753 -2
754 4
755 -2
756 2
757 -2
758 2
759 -2
760 2
761 -2
762 2
763 2
764 -4
765 4
766 2
767 2
768 2
769 2
770 4
771 4
772 -2
773 4
774 2
775 -2
776 4
777 2
778 2
779 4
780 -2
